33D32945 STP File, STP Format Version 1.0

SECTION Comments
Name "cube_n10_d3_s29"
Problem "Euclidean Steiner Tree Problem"
Remark "Generated with STPGenerator. 3 dimensions."
END

SECTION Graph
Nodes 10
END

SECTION Coordinates
DDD 0 0.8759893737 0.4619202984 0.7565934233
DDD 1 0.2626699606 0.5662877856 0.3799464867
DDD 2 0.4450082292 0.5312397017 0.8309675659
DDD 3 0.9260082347 0.7454492528 0.1616497483
DDD 4 0.1027180125 0.9668541835 0.2171490557
DDD 5 0.7873155781 0.2256253200 0.6172168532
DDD 6 0.5542016586 0.1448612135 0.5434454384
DDD 7 0.7647884776 0.3240588770 0.6973411928
DDD 8 0.5896277370 0.3313394461 0.5059928463
DDD 9 0.5876262708 0.6013480707 0.5097069594
END
